AS_Time_to_close=1; 
AS_Time_to_close_limit=2; 
AS_Time_to_open=1; 
AS_Time_to_open_limit=2; 
Cy_Time_to_down=1; 
Cy_Time_to_down_limit=2; 
Cy_Time_to_high=1; 
Cy_Time_to_high_limit=2; 
EV_Time_to_close=1; 
EV_Time_to_close_limit=2; 
EV_Time_to_open=1; 
EV_Time_to_open_limit=2; 
IN_D_cylinders=2; 
IN_G_cylinders=1; 
IN_Handle=1; 
IN_Handle_Sensor=[1,1,1]; 
IN_anomaly=[0,0]; 
IN_General_EV=[1,1]; 
IN_close_EV=[0,0]; 
IN_open_EV=[1,1]; 
IN_retract_EV=[1,1]; 
IN_extend_EV=[0,0]; 
IN_Hin=[1,1,1,1,1]; 
IN_Hout=[1,0,1,1,0]; 
IN_f_door_Sensor=[2,2,2];
IN_r_door_Sensor=[2,2,2];  
IN_l_door_Sensor=[2,2,2]; 
IN_f_gearPosition_Sensor=[2,2,2]; 
IN_r_gearPosition_Sensor=[2,2,2]; 
IN_l_gearPosition_Sensor=[2,2,2]; 
IN_Time_to_close_switch=1; 